N = 8;
H = 6;
T = 2;

avail = array3d(1..N, 1..H, 1..T, [2, 3, 9, 3, 1, 7, 8, 8, 9, 9, 6, 1, 10, 7, 8, 2, 10, 8, 7, 1, 3, 0, 9, 0, 2, 8, 0, 10, 10, 4, 3, 5, 4, 7, 7, 0, 2, 1, 1, 8, 10, 6, 4, 4, 3, 0, 10, 5, 3, 6, 9, 4, 8, 1, 10, 4, 7, 10, 7, 1, 7, 3, 3, 6, 3, 5, 3, 8, 0, 8, 0, 0, 0, 0, 5, 0, 2, 3, 0, 10, 3, 5, 0, 9, 5, 7, 7, 4, 6, 3, 7, 8, 9, 1, 7, 3]);

r = array2d(1..H, 1..T, [0, 3, 4, 2, 1, 2, 1, 3, 3, 2, 3, 2]);
